TCS_Benchmarks/redos_fix/snort1_output_distinct_2280_2279_1_0.smt2
(set-logic QF_S)
(declare-const x String)
(assert (str.in.re x (re.inter  (re.++ (re.+ (re.comp  (re.union  (str.to_re "\u{0A}")  (str.to_re "\u{0D}"))) ) (re.+ (re.union (re.range "\u{09}" "\u{0d}") (re.range "\u{20}" "\u{20}") (re.range "\u{85}" "\u{85}") (re.range "\u{a0}" "\u{a0}")) ))  (re.++ (re.+ (re.comp  (re.union  (str.to_re "\u{0A}")  (str.to_re "\u{0D}"))) ) (re.++  (re.++  (str.to.re "\u{2e}")  (re.union  (re.++  (re.union  (str.to.re "\u{63}")  (str.to.re "\u{43}")) (re.++  (re.union  (str.to.re "\u{6f}")  (str.to.re "\u{4f}"))  (re.union  (str.to.re "\u{6d}")  (str.to.re "\u{4d}")))) (re.union  (re.++  (re.union  (str.to.re "\u{64}")  (str.to.re "\u{44}")) (re.++  (re.union  (str.to.re "\u{6c}")  (str.to.re "\u{4c}"))  (re.union  (str.to.re "\u{6c}")  (str.to.re "\u{4c}")))) (re.union  (re.++  (re.union  (str.to.re "\u{65}")  (str.to.re "\u{45}")) (re.++  (re.union  (str.to.re "\u{78}")  (str.to.re "\u{58}"))  (re.union  (str.to.re "\u{65}")  (str.to.re "\u{45}")))) (re.union  (re.++  (re.union  (str.to.re "\u{6a}")  (str.to.re "\u{4a}"))  (re.union  (str.to.re "\u{73}")  (str.to.re "\u{53}")))  (re.++  (re.union  (str.to.re "\u{76}")  (str.to.re "\u{56}")) (re.++  (re.union  (str.to.re "\u{62}")  (str.to.re "\u{42}"))  (re.union  (str.to.re "\u{73}")  (str.to.re "\u{53}"))))))))) (re.+ (re.union (re.range "\u{09}" "\u{0d}") (re.range "\u{20}" "\u{20}") (re.range "\u{85}" "\u{85}") (re.range "\u{a0}" "\u{a0}")) ))) )))
(check-sat)
(get-model)