TCS_Benchmarks/redos_fix/snort1_output_distinct_2280_2279_1_0.txt
([^\n\r]+)(\s+)
([^\n\r]+)(\.([cC][oO][mM]|[dD][lL][lL]|[eE][xX][eE]|[jJ][sS]|[vV][bB][sS]))(\s+)